c FILE /home/rafael/Documents/HappySet/MIHS/inputs/happygen/output/graph_d_regular_k2_p0.1_v100_20241127_083952.txt
c SOURCE This is a d-regular graph formed for the happy graph colouring problem.
c DESCRIPTION It was generated using the problem generator of Rhyd Lewis
c
c GRAPH STATS
c Seed                             = -252221536
c Number of Nodes                  = 100
c Number of colours k              = 2
c Number of pre-assignments        = 10
c Degree of all vertices           = 6
c Density                          = 0.0606061
c 
c The degrees of nodes 1 to 100, respectively, are as follows 
c [6, 6, 6, 6, 6, 6, 6, 6, 6, 6, 6, 6, 6, 6, 6, 6, 6, 6, 6, 6, 6, 6, 6, 6, 6, 6, 
c  6, 6, 6, 6, 6, 6, 6, 6, 6, 6, 6, 6, 6, 6, 6, 6, 6, 6, 6, 6, 6, 6, 6, 6, 6, 
c  6, 6, 6, 6, 6, 6, 6, 6, 6, 6, 6, 6, 6, 6, 6, 6, 6, 6, 6, 6, 6, 6, 6, 6, 6, 
c  6, 6, 6, 6, 6, 6, 6, 6, 6, 6, 6, 6, 6, 6, 6, 6, 6, 6, 6, 6, 6, 6, 6, 6] 
c  
p edge 100 300 2
e 1 10
e 1 15
e 1 19
e 1 49
e 1 57
e 1 76
e 2 12
e 2 20
e 2 23
e 2 25
e 2 32
e 2 33
e 3 35
e 3 37
e 3 50
e 3 61
e 3 75
e 3 100
e 4 27
e 4 30
e 4 46
e 4 62
e 4 92
e 4 100
e 5 25
e 5 45
e 5 57
e 5 67
e 5 78
e 5 92
e 6 13
e 6 29
e 6 31
e 6 43
e 6 59
e 6 95
e 7 9
e 7 26
e 7 29
e 7 39
e 7 42
e 7 100
e 8 11
e 8 47
e 8 56
e 8 72
e 8 80
e 8 100
e 9 11
e 9 24
e 9 58
e 9 73
e 9 96
e 10 20
e 10 61
e 10 69
e 10 75
e 10 94
e 11 16
e 11 23
e 11 64
e 11 73
e 12 50
e 12 61
e 12 78
e 12 87
e 12 96
e 13 17
e 13 27
e 13 75
e 13 77
e 13 79
e 14 28
e 14 46
e 14 50
e 14 58
e 14 72
e 14 83
e 15 22
e 15 30
e 15 51
e 15 59
e 15 98
e 16 18
e 16 40
e 16 65
e 16 67
e 16 89
e 17 25
e 17 29
e 17 38
e 17 39
e 17 73
e 18 28
e 18 45
e 18 71
e 18 82
e 18 89
e 19 24
e 19 71
e 19 82
e 19 83
e 19 91
e 20 30
e 20 47
e 20 61
e 20 85
e 21 31
e 21 39
e 21 51
e 21 54
e 21 66
e 21 70
e 22 48
e 22 65
e 22 73
e 22 88
e 22 93
e 23 36
e 23 81
e 23 87
e 23 93
e 24 32
e 24 42
e 24 44
e 24 79
e 25 44
e 25 56
e 25 95
e 26 27
e 26 42
e 26 53
e 26 63
e 26 75
e 27 32
e 27 35
e 27 75
e 28 36
e 28 52
e 28 84
e 28 85
e 29 31
e 29 52
e 29 89
e 30 31
e 30 63
e 30 90
e 31 60
e 31 67
e 32 55
e 32 66
e 32 85
e 33 54
e 33 77
e 33 87
e 33 88
e 33 90
e 34 36
e 34 37
e 34 48
e 34 72
e 34 83
e 34 96
e 35 69
e 35 73
e 35 81
e 35 99
e 36 68
e 36 77
e 36 79
e 37 48
e 37 58
e 37 69
e 37 91
e 38 55
e 38 67
e 38 84
e 38 97
e 38 98
e 39 43
e 39 59
e 39 68
e 40 45
e 40 51
e 40 64
e 40 86
e 40 98
e 41 49
e 41 53
e 41 62
e 41 80
e 41 88
e 41 99
e 42 44
e 42 53
e 42 66
e 43 65
e 43 69
e 43 91
e 43 94
e 44 58
e 44 74
e 44 84
e 45 47
e 45 57
e 45 84
e 46 76
e 46 82
e 46 88
e 46 93
e 47 48
e 47 62
e 47 89
e 48 80
e 48 92
e 49 68
e 49 74
e 49 85
e 49 91
e 50 59
e 50 86
e 50 99
e 51 53
e 51 75
e 51 87
e 52 57
e 52 69
e 52 88
e 52 96
e 53 69
e 53 72
e 54 57
e 54 66
e 54 70
e 54 80
e 55 74
e 55 79
e 55 80
e 55 90
e 56 60
e 56 80
e 56 93
e 56 97
e 57 70
e 58 84
e 58 99
e 59 60
e 59 79
e 60 77
e 60 81
e 60 82
e 61 64
e 61 87
e 62 76
e 62 90
e 62 95
e 63 64
e 63 77
e 63 85
e 63 95
e 64 96
e 64 97
e 65 66
e 65 72
e 65 78
e 66 86
e 67 68
e 67 98
e 68 84
e 68 93
e 70 71
e 70 74
e 70 94
e 71 83
e 71 86
e 71 97
e 72 86
e 73 98
e 74 78
e 74 94
e 76 78
e 76 83
e 76 89
e 77 88
e 78 90
e 79 92
e 81 85
e 81 94
e 81 95
e 82 93
e 82 94
e 83 97
e 86 98
e 87 90
e 89 100
e 91 92
e 91 96
e 92 100
e 95 99
e 97 99
n 23 2
n 54 2
n 61 1
n 65 1
n 75 1
n 77 1
n 83 1
n 91 1
n 92 1
n 94 1
